
Gurobi 6.5.2 (linux64) logging started Wed Mar 15 13:02:00 2017


Gurobi 6.5.2 (linux64) logging started Wed Mar 15 13:02:00 2017

Optimize a model with 401 rows, 10150 columns and 21535 nonzeros
Coefficient statistics:
  Matrix range    [1e+00, 2e+00]
  Objective range [1e+00, 1e+02]
  Bounds range    [1e+00, 1e+00]
  RHS range       [1e+00, 1e+00]
Presolve removed 95 rows and 4 columns
Presolve time: 0.05s
Presolved: 306 rows, 10146 columns, 20803 nonzeros
Variable types: 0 continuous, 10146 integer (10146 binary)

Root relaxation: objective 1.370500e+03, 260 iterations, 0.01 seconds

    Nodes    |    Current Node    |     Objective Bounds      |     Work
 Expl Unexpl |  Obj  Depth IntInf | Incumbent    BestBd   Gap | It/Node Time

     0     0 1370.50000    0   36          - 1370.50000      -     -    0s
     0     0 1397.91667    0   41          - 1397.91667      -     -    0s
     0     0 1400.87500    0   50          - 1400.87500      -     -    0s
     0     0 1403.25000    0   44          - 1403.25000      -     -    0s
     0     0 1404.25000    0   50          - 1404.25000      -     -    0s
     0     0 1406.16667    0   50          - 1406.16667      -     -    0s
     0     0 1406.16667    0   51          - 1406.16667      -     -    0s
     0     0 1407.00000    0   58          - 1407.00000      -     -    0s
     0     0 1407.00000    0   64          - 1407.00000      -     -    0s
     0     0 1407.61538    0   59          - 1407.61538      -     -    0s
     0     0 1407.61538    0   57          - 1407.61538      -     -    0s
     0     2 1407.61538    0   57          - 1407.61538      -     -    1s
  2143  2071 1618.00000  458    6          - 1408.50000      -   5.4    5s
  4718  4518 1955.12500  795   21          - 1408.50000      -   6.6   10s

Cutting planes:
  Cover: 93
  MIR: 8
  Zero half: 7
  Lazy constraints: 219

Explored 4763 nodes (32151 simplex iterations) in 10.01 seconds
Thread count was 8 (of 8 available processors)

Time limit reached
Best objective -, best bound 1.409000000000e+03, gap -
